12
0 14 88 51 60 70 40 39 74 12 73 39
14 0 67 58 31 53 44 24 47 21 46 43
88 67 0 57 84 41 36 67 62 24 61 43
51 58 57 0 79 26 48 37 45 35 64 52
60 31 84 79 0 39 81 70 63 38 58 60
70 53 41 26 39 0 14 57 15 76 75 73
40 44 36 48 81 14 0 87 54 12 59 31
39 24 67 37 70 57 87 0 88 53 45 24
74 47 62 45 63 15 54 88 0 37 75 26
12 21 24 35 38 76 12 53 37 0 37 10
73 46 61 64 58 75 59 45 75 37 0 90
39 43 43 52 60 73 31 24 26 10 90 0
